benchmarks_CP/INST_49x49/40/inst49x49_40_34.dzn
S=7;
start=[|
-1,	11,	-1,	48,	-1,	22,	3,	23,	27,	-1,	-1,	-1,	10,	15,	13,	-1,	-1,	-1,	-1,	-1,	37,	-1,	-1,	-1,	-1,	-1,	20,	-1,	29,	-1,	-1,	4,	-1,	-1,	-1,	-1,	-1,	-1,	-1,	14,	49,	-1,	-1,	40,	25,	18,	-1,	-1,	7|
-1,	23,	34,	-1,	-1,	-1,	-1,	-1,	-1,	46,	24,	-1,	-1,	17,	-1,	-1,	49,	48,	19,	31,	44,	-1,	25,	30,	32,	6,	-1,	-1,	-1,	-1,	42,	-1,	26,	-1,	15,	9,	-1,	-1,	-1,	22,	36,	-1,	16,	28,	37,	-1,	1,	47,	29|
-1,	26,	2,	46,	-1,	31,	1,	-1,	-1,	16,	-1,	49,	-1,	-1,	35,	3,	8,	-1,	-1,	25,	-1,	-1,	-1,	34,	11,	-1,	-1,	-1,	-1,	7,	-1,	-1,	-1,	13,	-1,	-1,	37,	-1,	-1,	-1,	5,	24,	-1,	23,	4,	-1,	32,	-1,	41|
30,	-1,	-1,	12,	-1,	-1,	-1,	35,	33,	-1,	47,	-1,	-1,	-1,	14,	-1,	-1,	26,	-1,	7,	41,	49,	1,	-1,	-1,	42,	-1,	22,	45,	20,	-1,	-1,	23,	9,	-1,	11,	6,	-1,	31,	-1,	-1,	-1,	38,	-1,	46,	-1,	-1,	-1,	-1|
-1,	-1,	-1,	-1,	36,	-1,	-1,	-1,	-1,	-1,	-1,	48,	-1,	-1,	6,	43,	-1,	-1,	20,	23,	-1,	-1,	46,	-1,	9,	-1,	-1,	8,	19,	-1,	-1,	34,	-1,	-1,	14,	-1,	33,	-1,	38,	-1,	-1,	-1,	11,	26,	-1,	-1,	-1,	-1,	12|
-1,	6,	-1,	-1,	13,	-1,	-1,	44,	9,	-1,	-1,	-1,	-1,	-1,	-1,	-1,	-1,	1,	-1,	-1,	-1,	3,	-1,	-1,	14,	-1,	7,	-1,	-1,	46,	-1,	25,	-1,	27,	-1,	4,	34,	10,	23,	-1,	-1,	39,	-1,	42,	21,	-1,	-1,	15,	31|
29,	47,	14,	7,	-1,	-1,	19,	31,	-1,	-1,	-1,	39,	-1,	-1,	12,	24,	-1,	46,	5,	9,	-1,	-1,	28,	-1,	-1,	-1,	43,	-1,	49,	21,	-1,	3,	-1,	-1,	-1,	-1,	-1,	-1,	-1,	42,	-1,	1,	-1,	34,	45,	-1,	36,	30,	27|
40,	9,	5,	-1,	-1,	-1,	-1,	41,	-1,	-1,	21,	-1,	44,	8,	18,	-1,	-1,	2,	-1,	-1,	-1,	24,	22,	-1,	-1,	-1,	-1,	26,	-1,	-1,	-1,	-1,	-1,	-1,	19,	-1,	12,	-1,	-1,	-1,	-1,	-1,	-1,	-1,	-1,	-1,	38,	-1,	-1|
-1,	20,	-1,	-1,	4,	6,	-1,	-1,	-1,	-1,	-1,	-1,	1,	34,	-1,	-1,	-1,	38,	31,	35,	8,	-1,	16,	-1,	-1,	-1,	29,	-1,	-1,	-1,	12,	-1,	-1,	-1,	-1,	-1,	48,	-1,	-1,	-1,	46,	-1,	-1,	14,	-1,	-1,	-1,	17,	-1|
-1,	-1,	-1,	33,	31,	3,	-1,	29,	10,	15,	14,	19,	-1,	35,	4,	-1,	-1,	-1,	23,	22,	48,	1,	47,	-1,	8,	44,	11,	-1,	16,	-1,	-1,	26,	28,	40,	9,	34,	-1,	-1,	6,	-1,	18,	-1,	27,	25,	-1,	39,	-1,	-1,	43|
-1,	-1,	-1,	-1,	46,	-1,	-1,	-1,	-1,	13,	48,	-1,	-1,	31,	-1,	-1,	25,	-1,	-1,	-1,	16,	-1,	-1,	-1,	38,	32,	12,	4,	-1,	-1,	41,	33,	-1,	34,	-1,	-1,	-1,	1,	-1,	9,	24,	-1,	-1,	-1,	-1,	-1,	-1,	2,	20|
35,	8,	-1,	-1,	-1,	-1,	14,	-1,	6,	-1,	23,	-1,	-1,	-1,	-1,	-1,	-1,	27,	47,	-1,	-1,	-1,	-1,	7,	-1,	-1,	-1,	-1,	30,	18,	3,	-1,	-1,	-1,	10,	-1,	-1,	49,	-1,	-1,	-1,	-1,	29,	48,	-1,	13,	-1,	41,	-1|
-1,	-1,	25,	-1,	-1,	7,	-1,	18,	12,	-1,	4,	-1,	-1,	-1,	-1,	-1,	-1,	-1,	-1,	-1,	39,	-1,	49,	-1,	35,	-1,	-1,	-1,	-1,	1,	-1,	48,	27,	-1,	31,	-1,	-1,	3,	-1,	-1,	40,	-1,	28,	5,	-1,	-1,	-1,	22,	-1|
-1,	1,	-1,	34,	18,	-1,	-1,	26,	-1,	-1,	46,	16,	9,	-1,	28,	41,	-1,	-1,	-1,	-1,	29,	25,	-1,	-1,	-1,	-1,	-1,	-1,	-1,	8,	43,	-1,	24,	2,	47,	14,	-1,	-1,	-1,	33,	-1,	-1,	45,	10,	6,	-1,	-1,	32,	40|
6,	-1,	15,	-1,	-1,	-1,	48,	43,	14,	33,	-1,	-1,	-1,	22,	24,	-1,	-1,	19,	-1,	17,	31,	-1,	11,	-1,	-1,	-1,	-1,	-1,	-1,	-1,	-1,	-1,	-1,	-1,	23,	-1,	-1,	-1,	-1,	-1,	-1,	-1,	-1,	16,	28,	10,	-1,	20,	-1|
-1,	-1,	-1,	38,	12,	-1,	-1,	-1,	-1,	-1,	34,	24,	13,	27,	-1,	1,	-1,	-1,	-1,	-1,	-1,	-1,	-1,	-1,	-1,	-1,	3,	-1,	-1,	35,	48,	18,	42,	-1,	39,	-1,	-1,	17,	40,	-1,	26,	-1,	-1,	-1,	-1,	-1,	44,	45,	-1|
-1,	17,	45,	44,	9,	29,	-1,	-1,	8,	35,	20,	47,	-1,	-1,	-1,	11,	-1,	-1,	-1,	-1,	-1,	28,	-1,	-1,	21,	-1,	-1,	-1,	-1,	-1,	24,	-1,	19,	-1,	16,	-1,	-1,	-1,	-1,	-1,	38,	42,	-1,	18,	5,	-1,	-1,	-1,	48|
-1,	-1,	24,	-1,	20,	-1,	-1,	-1,	-1,	29,	-1,	-1,	39,	-1,	-1,	-1,	7,	42,	46,	41,	5,	-1,	4,	-1,	37,	-1,	19,	23,	-1,	-1,	-1,	27,	15,	-1,	-1,	-1,	-1,	-1,	49,	-1,	48,	25,	-1,	-1,	-1,	-1,	35,	11,	-1|
-1,	-1,	40,	-1,	-1,	-1,	-1,	-1,	38,	-1,	-1,	31,	42,	-1,	-1,	-1,	-1,	29,	3,	-1,	-1,	-1,	26,	35,	16,	-1,	17,	24,	7,	44,	-1,	49,	1,	6,	-1,	-1,	46,	13,	-1,	2,	-1,	-1,	-1,	47,	-1,	19,	-1,	8,	15|
3,	-1,	-1,	35,	28,	32,	37,	-1,	-1,	4,	-1,	15,	-1,	1,	-1,	-1,	47,	-1,	-1,	-1,	-1,	-1,	-1,	20,	-1,	-1,	44,	-1,	-1,	45,	-1,	-1,	11,	17,	41,	6,	-1,	29,	9,	36,	-1,	-1,	7,	24,	38,	-1,	-1,	-1,	-1|
33,	-1,	1,	4,	-1,	19,	8,	-1,	-1,	36,	-1,	37,	23,	18,	34,	-1,	38,	-1,	-1,	43,	-1,	-1,	6,	15,	-1,	-1,	-1,	2,	-1,	-1,	-1,	-1,	30,	-1,	-1,	10,	21,	-1,	5,	41,	45,	-1,	-1,	-1,	-1,	-1,	-1,	-1,	-1|
-1,	-1,	44,	-1,	-1,	-1,	-1,	30,	-1,	-1,	19,	-1,	-1,	-1,	-1,	-1,	-1,	-1,	-1,	-1,	-1,	14,	-1,	-1,	-1,	31,	8,	-1,	-1,	-1,	-1,	41,	-1,	35,	-1,	15,	-1,	20,	-1,	48,	-1,	46,	12,	33,	11,	43,	-1,	-1,	-1|
-1,	37,	-1,	9,	25,	-1,	-1,	46,	5,	-1,	-1,	43,	35,	-1,	42,	-1,	45,	-1,	-1,	-1,	27,	-1,	-1,	-1,	-1,	7,	30,	15,	-1,	38,	-1,	-1,	40,	-1,	-1,	-1,	-1,	-1,	-1,	-1,	34,	49,	-1,	-1,	47,	16,	18,	19,	-1|
43,	31,	47,	-1,	-1,	-1,	-1,	-1,	45,	12,	-1,	-1,	-1,	24,	33,	-1,	13,	-1,	11,	20,	-1,	-1,	-1,	-1,	5,	21,	28,	32,	-1,	-1,	39,	23,	7,	-1,	3,	-1,	-1,	22,	25,	-1,	-1,	-1,	-1,	38,	-1,	6,	2,	34,	-1|
-1,	-1,	-1,	27,	-1,	-1,	-1,	21,	-1,	25,	-1,	42,	-1,	-1,	-1,	23,	43,	31,	9,	16,	-1,	47,	-1,	11,	-1,	-1,	-1,	17,	-1,	-1,	37,	-1,	-1,	-1,	-1,	28,	-1,	6,	-1,	38,	30,	-1,	-1,	-1,	-1,	-1,	-1,	-1,	-1|
-1,	-1,	11,	29,	30,	-1,	-1,	-1,	16,	48,	-1,	-1,	-1,	-1,	-1,	40,	-1,	-1,	12,	-1,	-1,	-1,	9,	-1,	26,	34,	-1,	-1,	-1,	-1,	-1,	13,	-1,	-1,	-1,	-1,	-1,	44,	-1,	23,	31,	43,	32,	-1,	-1,	-1,	-1,	-1,	14|
-1,	-1,	-1,	-1,	24,	-1,	4,	38,	-1,	6,	9,	41,	-1,	-1,	-1,	-1,	-1,	-1,	14,	26,	-1,	48,	37,	19,	-1,	22,	-1,	44,	17,	-1,	36,	43,	-1,	-1,	-1,	33,	18,	-1,	7,	-1,	35,	11,	-1,	27,	-1,	-1,	-1,	-1,	-1|
-1,	-1,	-1,	45,	22,	10,	46,	-1,	18,	-1,	-1,	44,	7,	-1,	-1,	15,	-1,	-1,	2,	-1,	-1,	-1,	-1,	-1,	-1,	-1,	-1,	49,	-1,	-1,	33,	-1,	14,	-1,	-1,	-1,	8,	47,	-1,	-1,	-1,	-1,	-1,	-1,	-1,	23,	25,	-1,	9|
-1,	-1,	-1,	14,	-1,	34,	-1,	22,	31,	-1,	-1,	13,	-1,	-1,	37,	-1,	-1,	49,	17,	-1,	-1,	15,	-1,	-1,	-1,	26,	-1,	-1,	-1,	-1,	40,	-1,	-1,	-1,	-1,	-1,	-1,	-1,	8,	43,	11,	-1,	35,	4,	20,	7,	-1,	36,	25|
-1,	-1,	4,	-1,	-1,	18,	-1,	-1,	29,	30,	-1,	-1,	-1,	-1,	-1,	-1,	46,	-1,	-1,	2,	-1,	12,	-1,	17,	-1,	-1,	-1,	37,	28,	26,	-1,	36,	20,	47,	35,	-1,	-1,	-1,	44,	3,	-1,	-1,	-1,	32,	-1,	-1,	-1,	-1,	33|
46,	-1,	39,	13,	-1,	-1,	-1,	-1,	-1,	-1,	35,	-1,	-1,	-1,	-1,	-1,	-1,	18,	-1,	27,	38,	-1,	-1,	-1,	-1,	23,	22,	29,	14,	43,	-1,	-1,	-1,	41,	-1,	-1,	-1,	-1,	-1,	-1,	-1,	36,	-1,	-1,	-1,	3,	-1,	5,	-1|
-1,	27,	-1,	47,	-1,	28,	38,	8,	4,	-1,	17,	46,	36,	-1,	-1,	-1,	11,	-1,	-1,	-1,	12,	-1,	-1,	-1,	-1,	-1,	34,	-1,	-1,	-1,	-1,	-1,	-1,	25,	-1,	-1,	32,	26,	-1,	24,	-1,	-1,	39,	-1,	40,	37,	-1,	-1,	-1|
-1,	-1,	-1,	21,	-1,	11,	-1,	37,	2,	-1,	5,	20,	-1,	-1,	23,	29,	-1,	-1,	-1,	-1,	-1,	-1,	40,	14,	18,	-1,	-1,	-1,	-1,	-1,	-1,	17,	34,	-1,	4,	-1,	9,	-1,	42,	-1,	-1,	13,	41,	45,	44,	-1,	30,	-1,	38|
-1,	-1,	-1,	26,	-1,	-1,	-1,	-1,	-1,	24,	32,	18,	16,	-1,	-1,	14,	31,	-1,	4,	-1,	-1,	-1,	3,	8,	43,	1,	-1,	-1,	-1,	-1,	6,	-1,	-1,	-1,	-1,	-1,	15,	-1,	-1,	-1,	-1,	-1,	17,	-1,	19,	29,	-1,	28,	-1|
-1,	12,	-1,	-1,	-1,	-1,	17,	-1,	15,	-1,	-1,	40,	33,	-1,	-1,	-1,	10,	-1,	-1,	-1,	-1,	-1,	32,	-1,	-1,	24,	-1,	-1,	-1,	19,	-1,	-1,	-1,	-1,	8,	29,	38,	-1,	-1,	5,	-1,	6,	-1,	-1,	-1,	-1,	-1,	18,	-1|
7,	41,	26,	-1,	-1,	14,	-1,	-1,	-1,	37,	-1,	-1,	-1,	-1,	21,	-1,	-1,	33,	28,	-1,	-1,	-1,	-1,	-1,	-1,	-1,	1,	-1,	44,	-1,	-1,	16,	-1,	-1,	11,	-1,	-1,	-1,	36,	-1,	47,	-1,	2,	17,	-1,	-1,	10,	-1,	-1|
-1,	-1,	27,	-1,	6,	9,	28,	15,	35,	18,	-1,	-1,	30,	49,	17,	4,	-1,	-1,	-1,	-1,	10,	-1,	-1,	-1,	-1,	36,	-1,	-1,	-1,	-1,	-1,	40,	-1,	-1,	-1,	38,	-1,	-1,	-1,	29,	-1,	-1,	14,	-1,	-1,	45,	-1,	-1,	-1|
-1,	45,	-1,	2,	-1,	24,	-1,	-1,	11,	44,	16,	28,	-1,	-1,	-1,	38,	-1,	-1,	42,	49,	-1,	46,	-1,	21,	-1,	-1,	40,	-1,	-1,	30,	-1,	-1,	-1,	1,	-1,	-1,	22,	-1,	-1,	4,	-1,	5,	15,	35,	36,	-1,	-1,	-1,	47|
-1,	-1,	22,	20,	5,	-1,	-1,	4,	1,	8,	33,	21,	6,	-1,	15,	19,	-1,	16,	-1,	-1,	-1,	42,	27,	-1,	-1,	43,	-1,	-1,	-1,	-1,	-1,	47,	39,	45,	-1,	7,	-1,	9,	-1,	-1,	14,	26,	40,	49,	-1,	38,	-1,	24,	28|
38,	42,	-1,	-1,	43,	21,	-1,	24,	-1,	-1,	-1,	-1,	-1,	-1,	-1,	35,	-1,	-1,	36,	-1,	-1,	-1,	-1,	-1,	-1,	5,	-1,	28,	22,	-1,	27,	-1,	-1,	15,	-1,	1,	-1,	25,	45,	-1,	-1,	33,	-1,	-1,	-1,	12,	20,	-1,	-1|
-1,	36,	33,	32,	-1,	-1,	-1,	2,	17,	-1,	-1,	-1,	5,	-1,	27,	-1,	-1,	-1,	-1,	34,	13,	-1,	-1,	6,	49,	20,	38,	14,	-1,	-1,	-1,	42,	-1,	-1,	-1,	-1,	-1,	-1,	-1,	-1,	-1,	31,	-1,	-1,	23,	-1,	37,	39,	-1|
-1,	-1,	-1,	1,	19,	13,	10,	-1,	-1,	-1,	39,	29,	-1,	-1,	20,	45,	30,	47,	-1,	-1,	-1,	-1,	-1,	-1,	-1,	-1,	25,	-1,	24,	17,	-1,	21,	-1,	-1,	2,	12,	-1,	42,	-1,	-1,	-1,	-1,	-1,	11,	-1,	-1,	-1,	33,	-1|
27,	16,	-1,	-1,	40,	-1,	29,	-1,	-1,	-1,	-1,	-1,	2,	42,	-1,	-1,	48,	-1,	18,	-1,	-1,	-1,	24,	47,	-1,	-1,	-1,	-1,	5,	-1,	32,	-1,	-1,	39,	-1,	44,	-1,	-1,	19,	-1,	-1,	-1,	9,	43,	1,	-1,	-1,	-1,	10|
-1,	28,	-1,	-1,	-1,	45,	6,	9,	-1,	23,	18,	35,	-1,	-1,	5,	-1,	-1,	-1,	16,	4,	-1,	-1,	44,	2,	36,	-1,	41,	-1,	-1,	-1,	46,	1,	-1,	-1,	-1,	-1,	29,	-1,	-1,	31,	-1,	3,	-1,	-1,	15,	-1,	39,	25,	-1|
-1,	-1,	-1,	-1,	32,	-1,	-1,	5,	47,	-1,	30,	-1,	-1,	-1,	43,	27,	29,	-1,	10,	-1,	-1,	-1,	20,	-1,	19,	-1,	-1,	-1,	4,	6,	-1,	-1,	-1,	-1,	-1,	-1,	16,	34,	-1,	25,	-1,	-1,	-1,	-1,	-1,	-1,	-1,	-1,	3|
-1,	-1,	-1,	-1,	-1,	25,	-1,	7,	-1,	-1,	-1,	-1,	-1,	-1,	-1,	36,	-1,	-1,	21,	15,	6,	13,	-1,	31,	28,	-1,	14,	27,	-1,	-1,	49,	-1,	-1,	18,	17,	35,	-1,	-1,	-1,	47,	37,	-1,	4,	-1,	48,	40,	-1,	29,	-1|
-1,	-1,	-1,	-1,	-1,	-1,	20,	32,	44,	49,	-1,	11,	-1,	16,	-1,	-1,	-1,	45,	-1,	-1,	-1,	-1,	-1,	-1,	-1,	-1,	-1,	25,	-1,	-1,	-1,	-1,	-1,	-1,	-1,	26,	42,	4,	-1,	7,	-1,	27,	-1,	-1,	14,	-1,	22,	31,	-1|
-1,	49,	10,	18,	14,	37,	-1,	-1,	-1,	-1,	6,	12,	27,	-1,	-1,	-1,	42,	-1,	13,	-1,	19,	4,	-1,	-1,	-1,	-1,	-1,	-1,	-1,	-1,	-1,	-1,	-1,	-1,	-1,	-1,	-1,	39,	46,	45,	-1,	-1,	-1,	44,	33,	-1,	-1,	-1,	26|
-1,	4,	-1,	31,	38,	-1,	-1,	-1,	24,	-1,	-1,	10,	-1,	13,	46,	-1,	-1,	-1,	37,	-1,	-1,	6,	-1,	-1,	-1,	-1,	-1,	9,	-1,	-1,	-1,	-1,	29,	26,	-1,	-1,	20,	-1,	-1,	49,	-1,	-1,	34,	12,	-1,	47,	-1,	-1,	17|];
