sudoku-ls/benchmarks_LEQ/INST_49x49/40/inst49x49_40_34.txt
7
1
-1	-1	-1	48	35	-1	-1	-1	-1	42	-1	-1	-1	-1	13	2	-1	-1	-1	-1	37	-1	-1	26	45	19	20	-1	29	-1	-1	-1	17	24	-1	8	-1	-1	12	-1	-1	47	6	40	25	-1	-1	-1	7
-1	23	34	-1	27	20	-1	-1	21	-1	24	7	4	17	-1	-1	-1	-1	19	31	-1	-1	25	30	32	-1	13	-1	-1	33	42	38	-1	-1	15	9	-1	-1	43	-1	-1	35	16	-1	37	-1	-1	47	-1
44	26	2	-1	39	-1	-1	14	-1	16	36	-1	45	-1	35	-1	-1	-1	40	25	42	-1	-1	34	-1	-1	15	-1	43	-1	28	22	-1	13	12	-1	-1	-1	-1	-1	5	24	19	-1	4	-1	-1	-1	-1
-1	15	-1	12	-1	43	-1	35	-1	19	-1	8	34	-1	14	-1	-1	-1	29	-1	-1	-1	-1	-1	24	-1	-1	-1	45	-1	-1	-1	-1	-1	40	11	-1	-1	-1	-1	-1	17	38	3	-1	-1	13	-1	39
-1	-1	28	-1	36	4	-1	3	-1	-1	-1	-1	41	-1	-1	-1	-1	-1	20	-1	-1	-1	-1	39	-1	47	31	8	-1	-1	30	-1	37	-1	-1	40	-1	-1	38	-1	-1	45	-1	26	17	49	24	-1	-1
-1	-1	32	49	-1	-1	-1	-1	-1	-1	-1	-1	-1	28	-1	-1	-1	1	-1	45	33	3	12	-1	-1	-1	7	-1	-1	46	-1	-1	-1	-1	-1	-1	34	-1	-1	19	29	39	-1	-1	-1	2	43	15	-1
29	-1	14	7	33	-1	-1	31	-1	-1	-1	39	18	-1	12	-1	15	-1	5	9	17	35	28	-1	23	4	-1	-1	-1	-1	-1	-1	48	-1	6	13	25	-1	-1	-1	16	-1	8	34	-1	-1	36	-1	-1
-1	-1	5	17	-1	-1	-1	-1	7	-1	-1	-1	-1	8	18	-1	-1	-1	49	-1	-1	-1	-1	-1	-1	45	48	26	23	14	-1	6	-1	-1	-1	-1	-1	31	-1	-1	-1	29	47	30	-1	4	-1	42	-1
-1	20	-1	10	4	-1	-1	47	36	-1	-1	33	-1	-1	-1	30	-1	-1	31	35	-1	-1	16	-1	2	-1	-1	43	-1	-1	-1	-1	-1	-1	5	-1	-1	-1	-1	-1	-1	-1	-1	-1	-1	-1	-1	-1	24
12	-1	-1	33	-1	3	24	-1	-1	-1	-1	19	-1	-1	4	32	-1	-1	-1	-1	-1	1	-1	42	-1	-1	-1	-1	-1	-1	17	-1	-1	40	9	-1	-1	-1	-1	-1	18	-1	-1	-1	-1	-1	21	-1	-1
-1	21	-1	-1	-1	36	-1	28	43	-1	-1	-1	49	-1	-1	6	-1	-1	-1	40	-1	-1	18	5	-1	-1	12	4	-1	-1	41	-1	-1	-1	42	-1	17	-1	35	9	-1	7	-1	15	8	11	-1	-1	20
-1	-1	-1	-1	44	-1	-1	42	6	-1	-1	-1	-1	-1	19	33	-1	-1	47	-1	-1	-1	-1	7	17	-1	9	20	-1	-1	3	15	-1	46	-1	-1	11	-1	22	26	-1	-1	-1	-1	-1	-1	-1	41	36
16	30	-1	19	-1	-1	-1	-1	12	-1	-1	2	-1	38	-1	-1	-1	-1	-1	42	-1	-1	-1	-1	-1	-1	-1	6	11	-1	-1	48	27	-1	-1	43	-1	3	-1	-1	-1	-1	-1	-1	-1	44	-1	-1	-1
22	1	-1	34	18	-1	-1	26	-1	-1	46	16	9	-1	28	-1	12	11	7	-1	29	-1	-1	-1	-1	-1	-1	-1	38	8	43	37	-1	-1	47	-1	-1	36	4	-1	-1	-1	-1	-1	-1	35	-1	-1	-1
6	-1	15	39	-1	-1	48	43	-1	-1	-1	-1	-1	22	-1	-1	36	19	45	-1	-1	-1	-1	25	12	-1	-1	1	-1	-1	-1	8	-1	37	-1	-1	-1	-1	-1	-1	-1	-1	-1	16	-1	10	-1	20	13
-1	43	31	-1	12	-1	7	10	28	-1	34	-1	-1	27	-1	-1	6	-1	-1	-1	-1	32	14	29	47	-1	-1	-1	33	35	-1	18	42	4	-1	-1	-1	17	-1	11	26	16	-1	-1	-1	-1	-1	45	2
23	-1	-1	44	-1	-1	-1	-1	-1	35	-1	-1	32	-1	-1	-1	-1	-1	-1	-1	4	28	13	-1	-1	27	-1	-1	3	-1	-1	-1	19	-1	-1	-1	-1	-1	15	34	38	42	25	-1	5	-1	46	-1	-1
-1	13	24	-1	20	47	-1	-1	-1	-1	-1	17	-1	21	-1	28	-1	-1	-1	-1	-1	-1	-1	-1	-1	-1	19	-1	2	9	-1	27	15	-1	43	18	1	-1	49	30	48	25	-1	-1	-1	-1	-1	-1	6
5	-1	-1	41	-1	-1	36	-1	-1	-1	45	31	42	12	-1	-1	-1	29	3	18	23	-1	26	-1	16	30	-1	-1	-1	44	21	-1	1	6	-1	20	46	-1	-1	-1	33	-1	43	47	-1	-1	-1	8	15
3	14	-1	-1	-1	-1	-1	49	46	4	-1	-1	19	-1	-1	-1	-1	-1	-1	-1	-1	8	43	-1	48	-1	-1	-1	-1	-1	-1	5	11	-1	41	-1	31	29	-1	-1	-1	-1	-1	-1	-1	-1	-1	-1	-1
-1	22	1	4	-1	-1	-1	16	-1	-1	-1	37	-1	-1	34	44	38	-1	-1	-1	26	-1	6	15	40	9	39	-1	-1	-1	47	-1	30	-1	-1	-1	21	-1	-1	-1	45	-1	49	29	3	17	42	14	-1
13	-1	44	6	-1	26	21	30	22	-1	19	-1	-1	-1	29	-1	-1	5	-1	10	7	14	-1	-1	-1	31	-1	-1	42	47	25	-1	-1	35	-1	15	24	-1	16	48	-1	-1	-1	-1	-1	43	17	-1	-1
14	37	17	-1	-1	-1	-1	46	5	31	-1	-1	-1	-1	-1	48	-1	4	6	24	-1	-1	-1	-1	-1	-1	30	-1	-1	-1	26	28	-1	-1	-1	36	-1	2	-1	-1	-1	-1	-1	39	47	-1	-1	19	-1
43	31	-1	36	48	-1	15	-1	45	-1	-1	14	29	-1	-1	17	13	-1	11	-1	-1	-1	10	-1	-1	-1	-1	-1	-1	4	-1	-1	-1	-1	-1	41	26	-1	-1	-1	42	-1	-1	38	35	6	-1	-1	8
-1	-1	49	-1	-1	5	35	-1	-1	-1	15	-1	8	33	1	23	-1	-1	9	16	-1	47	-1	-1	-1	-1	-1	17	-1	-1	37	-1	2	48	44	28	14	6	-1	38	30	19	-1	41	-1	36	29	3	-1
-1	-1	-1	-1	-1	8	-1	1	-1	-1	-1	36	47	-1	-1	-1	-1	22	12	-1	49	-1	9	-1	-1	34	-1	-1	6	-1	-1	-1	-1	5	-1	39	-1	-1	17	-1	-1	43	32	7	-1	-1	-1	-1	14
39	34	16	23	-1	42	-1	38	-1	-1	9	-1	40	-1	-1	8	21	-1	14	-1	-1	48	-1	19	-1	-1	-1	-1	-1	-1	-1	-1	46	-1	-1	-1	-1	-1	-1	-1	-1	11	31	27	10	-1	28	-1	49
-1	-1	-1	-1	22	-1	-1	-1	18	32	-1	-1	-1	-1	39	15	41	-1	-1	-1	36	43	35	12	6	29	42	-1	-1	-1	33	-1	-1	11	34	-1	8	47	-1	27	1	21	-1	-1	-1	-1	25	-1	-1
2	29	-1	-1	45	34	9	-1	31	10	-1	-1	-1	-1	37	-1	19	49	-1	32	-1	-1	-1	41	-1	-1	-1	39	12	42	-1	44	33	38	-1	47	-1	-1	8	43	11	-1	-1	4	20	7	-1	-1	25
-1	-1	4	22	41	-1	-1	19	-1	-1	-1	-1	-1	-1	45	-1	-1	-1	15	2	40	-1	48	-1	-1	-1	-1	-1	-1	-1	-1	-1	20	-1	-1	-1	7	-1	-1	-1	-1	-1	10	32	-1	-1	6	13	33
-1	-1	-1	13	10	-1	-1	-1	-1	-1	-1	6	-1	-1	-1	25	-1	-1	8	27	38	-1	-1	-1	20	23	-1	-1	14	-1	-1	11	-1	-1	32	-1	-1	37	21	-1	-1	-1	48	-1	24	3	-1	5	-1
1	-1	-1	-1	16	-1	38	-1	-1	43	-1	-1	-1	-1	41	-1	11	-1	35	-1	-1	-1	-1	33	-1	-1	-1	-1	-1	29	-1	9	3	25	-1	31	32	26	-1	-1	-1	-1	39	-1	40	37	-1	-1	23
32	24	-1	21	8	11	43	-1	2	-1	-1	-1	-1	-1	23	29	-1	-1	-1	33	-1	-1	-1	14	-1	25	-1	31	10	-1	16	-1	-1	22	-1	46	9	35	42	-1	19	-1	-1	-1	44	15	-1	-1	38
36	7	-1	-1	23	-1	-1	-1	-1	24	32	-1	16	45	-1	-1	-1	-1	-1	48	20	-1	-1	-1	-1	1	-1	13	-1	-1	-1	-1	5	-1	30	2	-1	33	41	-1	-1	-1	17	-1	-1	-1	-1	-1	11
48	-1	-1	42	-1	44	-1	-1	-1	-1	-1	-1	-1	-1	36	-1	-1	-1	43	47	30	-1	-1	-1	-1	24	4	-1	46	-1	-1	-1	13	-1	8	-1	-1	-1	-1	-1	-1	6	-1	-1	2	34	31	18	16
7	-1	-1	-1	-1	-1	-1	-1	-1	-1	27	34	25	-1	-1	-1	3	33	28	12	-1	-1	45	-1	-1	-1	-1	-1	-1	-1	-1	-1	-1	-1	-1	-1	-1	48	-1	-1	-1	15	-1	-1	29	42	10	6	-1
-1	48	27	-1	6	-1	-1	-1	-1	18	-1	22	-1	-1	-1	-1	-1	-1	-1	-1	-1	39	19	24	7	-1	37	-1	32	-1	8	40	-1	-1	-1	-1	-1	23	20	29	-1	-1	-1	31	13	-1	-1	-1	46
37	-1	-1	-1	29	24	-1	-1	-1	44	-1	-1	14	-1	8	38	23	-1	-1	49	-1	-1	-1	-1	-1	-1	40	-1	-1	30	19	20	-1	1	7	-1	22	-1	-1	-1	27	-1	-1	-1	36	-1	26	-1	-1
17	18	22	-1	-1	23	-1	4	1	-1	33	-1	-1	-1	-1	-1	-1	-1	-1	-1	-1	42	-1	32	-1	43	35	-1	36	-1	-1	47	-1	-1	13	-1	-1	-1	-1	-1	-1	-1	40	49	-1	-1	-1	24	-1
-1	-1	30	-1	-1	-1	-1	-1	-1	-1	-1	26	-1	-1	7	-1	-1	37	36	46	-1	-1	2	44	-1	-1	23	28	-1	31	-1	-1	-1	-1	49	-1	-1	-1	-1	-1	-1	33	3	8	-1	-1	20	-1	-1
-1	-1	33	32	47	-1	-1	-1	-1	7	-1	45	-1	10	-1	-1	22	-1	-1	34	13	11	-1	-1	-1	-1	38	-1	-1	-1	4	-1	-1	-1	46	-1	28	-1	24	-1	43	-1	1	-1	23	-1	37	-1	-1
-1	-1	46	1	-1	13	-1	-1	23	-1	-1	-1	-1	43	-1	-1	-1	47	41	6	-1	-1	-1	22	-1	16	-1	48	-1	-1	-1	-1	9	-1	-1	12	-1	-1	-1	37	-1	40	5	11	-1	-1	7	33	-1
-1	-1	-1	-1	-1	-1	-1	-1	-1	-1	-1	4	-1	-1	-1	-1	-1	25	18	3	-1	7	-1	-1	-1	-1	-1	46	-1	-1	-1	-1	-1	-1	-1	44	-1	12	-1	-1	-1	-1	-1	-1	-1	-1	8	21	10
47	-1	7	43	17	-1	6	9	34	23	18	-1	22	-1	5	-1	-1	8	16	-1	-1	30	-1	-1	-1	-1	41	11	-1	40	-1	-1	10	-1	48	21	-1	38	-1	31	13	-1	-1	-1	15	24	-1	25	-1
-1	39	-1	-1	-1	41	-1	-1	47	28	-1	-1	15	-1	43	27	-1	23	-1	44	35	-1	20	37	-1	8	26	-1	4	-1	-1	31	-1	-1	33	-1	-1	-1	-1	25	-1	14	13	2	-1	-1	-1	38	-1
26	-1	-1	-1	1	25	42	7	41	39	-1	-1	46	19	22	36	32	-1	21	15	-1	13	33	-1	-1	-1	14	-1	-1	23	-1	24	16	-1	17	-1	43	11	-1	47	37	-1	-1	20	48	40	-1	29	-1
34	-1	-1	-1	-1	-1	-1	32	44	49	29	11	17	16	-1	12	24	45	38	-1	-1	23	-1	43	39	-1	10	-1	-1	-1	-1	-1	-1	-1	37	-1	-1	4	-1	-1	-1	27	-1	6	-1	41	-1	-1	-1
-1	-1	-1	18	14	-1	-1	48	-1	-1	-1	-1	27	-1	-1	34	-1	-1	-1	-1	-1	-1	38	1	-1	-1	32	-1	-1	3	-1	-1	41	-1	20	-1	-1	39	-1	45	8	9	36	-1	-1	-1	-1	-1	-1
-1	-1	-1	-1	38	-1	23	-1	24	-1	-1	-1	-1	-1	-1	-1	-1	41	37	-1	2	-1	-1	-1	-1	3	5	-1	-1	11	44	-1	-1	-1	-1	48	-1	40	-1	49	-1	-1	34	-1	32	-1	16	-1	17
49 
12 17 30 11
39 17 27 27
29 3 22 5
13 11 26 37
33 11 37 17
40 41 27 10
39 36 33 18
46 3 32 8
16 46 28 49
19 16 25 30
6 13 19 8
5 49 18 45
14 25 27 9
6 25 2 46
20 12 49 41
11 21 17 35
35 7 31 40
41 49 15 27
7 7 26 2
25 29 44 16
42 32 47 3
24 38 16 43
5 20 11 43
15 15 29 35
37 1 35 41
7 39 26 25
8 39 9 22
44 2 28 18
2 49 9 27
20 49 31 7
10 5 14 23
4 32 3 47
37 34 1 28
19 5 20 31
31 11 15 40
4 24 36 39
8 20 33 8
28 3 11 25
22 14 42 11
19 3 29 31
27 12 26 7
4 26 45 34
37 18 12 3
16 47 42 49
11 1 39 34
10 48 26 27
43 24 4 11
11 11 39 47
14 47 35 34
